NAME: ACTUAL_TOURS/amz2130
TYPE: TOUR
COMMENT: RouteID_e1b82976-f35e-4b33-a1e5-2c73fa66e627
DIMENSION: 158
TOUR_SECTION
113
47
157
1
148
107
52
125
25
153
156
43
112
144
152
102
59
3
27
116
42
103
128
61
130
65
51
77
158
41
68
146
108
35
150
72
4
45
100
32
79
118
145
69
31
73
70
58
137
40
64
11
54
93
7
132
74
67
82
126
139
141
149
155
62
127
18
119
8
37
136
123
83
5
121
13
19
6
20
30
80
143
92
48
98
2
36
117
28
96
60
76
71
135
21
110
26
46
86
94
95
104
115
90
151
39
124
129
101
29
99
122
85
24
78
91
138
12
89
66
87
34
97
75
57
9
142
133
114
111
16
33
154
17
14
84
134
109
140
15
56
131
105
63
53
50
106
22
81
55
10
88
49
23
120
38
147
44
-1
EOF
